DATASET = "thpack2";
INSTANCE = "077";

WIDTH = 233;
HEIGHT = 220;
LENGTH = 587;

NO_OF_SHAPES = 5;
size = [|
  73,73,36 |
  87,49,26 |
  68,53,44 |
  73,57,33 |
  65,49,47 |
|];

verticality = [|
  0,0,1 |
  0,1,1 |
  1,1,1 |
  0,1,1 |
  1,1,1 |
|];

box_count = [
  41,
  50,
  45,
  37,
  29,
];
